PARAMETER_FILE = even/even_complete_graph_new/par/random98.par
PROBLEM_FILE = even/even_complete_graph_new/mat/random98.tsp
Successes/Runs = 0/10
Cost.min = 764, Cost.avg = 764.00, Cost.max = 764
Gap.min = 0.0000%, Gap.avg = 0.0000%, Gap.max = 0.0000%
Trials.min = 1000, Trials.avg = 1000.0, Trials.max = 1000
Time.min = 0.56 sec., Time.avg = 0.82 sec., Time.max = 1.06 sec.
Time.total = 8.28 sec.
